580367
580367
580367
580367
580367
580367
580367
580367
580367
580367
580367
580367
580367
580367
580367
580367
211599
211599
211599
211599
211599
211599
211599
211599
211599
211599
211599
211599
211599
211599
211599
211599
211599
211599
211599
211599
211599
211599
211599
211599
211599
211599
211599
211599
211599
211599
211599
211599
211599
211599
211599
211599
211599
211599
211599
211599
211599
211599
211599
211599
211599
211599
211599
211599
211599
211599
211599
211599
211599
211599
211599
211599
211599
211599
211599
211599
211599
211599
211599
211599
211599
211599
211599
211599
211599
211599
211599
211599
211599
211599
211599
211599
211599
211599
211599
211599
211599
211599
211599
211599
